51
 1 1020 20
 2 988 19
 3 1007 19
 4 162 3
 5 110 2
 6 952 17
 7 1140 20
 8 1160 20
 9 1003 17
 10 180 3
 11 244 4
 12 310 5
 13 378 6
 14 1280 20
 15 390 6
 16 1056 16
 17 737 11
 18 884 13
 19 621 9
 20 350 5
 21 781 11
 22 1224 17
 23 438 6
 24 592 8
 25 525 7
 26 76 1
 27 1078 14
 28 390 5
 29 1027 13
 30 1280 16
 31 81 1
 32 328 4
 33 332 4
 34 1092 13
 35 595 7
 36 1376 16
 37 696 8
 38 1408 16
 39 890 10
 40 990 11
 41 637 7
 42 460 5
 43 1395 15
 44 1786 19
 45 855 9
 46 1440 15
 47 291 3
 48 1764 18
 49 198 2
 50 1800 18
 51 2020 20
816